HFSDDW
15	4	2
0	29	1	53
0	75	1	18
0	99	1	30
0	2	1	84
0	15	1	80
0	64	1	67
0	28	1	80
0	27	1	16
0	93	1	17
0	12	1	39
0	36	1	92
0	24	1	90
0	59	1	17
0	50	1	32
0	48	1	62
LBCmax: 396
RELDUE
-1	192	7	1
-1	161	8	5
-1	140	1	7
-1	168	9	8
-1	155	1	3
-1	161	4	3
-1	197	8	6
-1	153	8	8
-1	137	7	4
-1	135	5	8
-1	171	1	4
-1	146	6	4
-1	177	7	2
-1	135	5	9
-1	179	9	7
DDW
190	194
158	164
139	141
165	171
140	170
159	163
183	211
141	165
130	144
123	147
154	188
134	158
173	181
130	140
177	181
